22	3

15	20	20	

0	0	0	0	3	2	3	4	
1	3	5	2	2	5	6	
1	5	4	3	3	5	6	7	
1	5	2	2	2	5	8	
1	4	1	4	2	9	10	
1	5	5	4	2	10	12	
1	3	5	2	2	11	12	
1	2	4	4	2	10	12	
1	3	2	2	2	13	14	
1	3	2	4	1	13	
1	3	3	2	1	13	
1	4	1	4	3	13	15	16	
1	1	4	4	2	17	18	
1	2	2	2	1	18	
1	5	5	4	1	18	
1	1	5	4	1	19	
1	4	5	4	1	21	
1	3	2	3	1	20	
1	5	3	3	1	21	
1	2	4	6	1	22	
1	1	6	2	1	22	
0	0	0	0	0	
